Reproduction of the Original Problem/Instances/S2-5/S2-15-5-1-s.txt
     200       5    0.15
       1       2       2       2       3      16      12      11       0      16       1
       1       1       1       2       3      15       3      12      11       6       1
       2       1       3       2       2       8       3      14       1      11       1
       2       1       3       1       1      12       4       9      15      10       1
       3       3       3       1       3       6       4       8      13       4       1
       1       1       2       3       1       7      13       4       0       7       1
       3       2       3       2       2       9       4       6      11       0       1
       2       2       1       3       2      14       4       2       5       9       1
       1       2       2       2       1       2       1      11       1      12       1
       1       1       1       2       1      16       4      16       4      15       1
       3       1       2       2       3       3       1      14       5       5       1
       1       1       1       3       1      15       0       4       6      16       1
       1       1       1       1       3      13       9      13       1       5       1
       2       3       3       2       1       0       9       9       8      15       1
       1       3       2       2       1      16       4      13       3       4       1
       2       1       1       1       2      12       7      16      14       2       1
       1       2       2       2       1      14       3       2       5      12       1
       1       1       1       1       1      15       9       3      14       1       1
       1       2       1       3       3       7      13      16       6       0       1
       1       2       1       2       2       8      10      12       2      12       1
       2       3       2       1       2      15       2      15      14      14       1
       2       2       3       2       3      11       9       9      10      15       1
       1       2       2       3       1       8       0      11       4       9       1
       3       3       1       3       1       5      16      10       8      12       1
       2       2       1       1       2       8       6       2      15       7       1
       2       2       2       3       1      16       6       0       1       7       1
       2       3       3       1       1      15       2       8      15       8       1
       3       1       3       3       2      14      13       8      14       5       1
       3       3       2       2       3      12       4      10      10      14       1
       3       3       1       2       2      10      10       1      13      14       1
       2       2       2       2       3       6      14       0      14      13       1
       2       3       2       3       1       4      10       0      15      12       1
       2       2       2       1       2      13       3      10      14       8       1
       3       3       1       3       2       8      16       3       8       5       1
       2       2       2       3       2      11       4      13      10       4       1
       2       3       2       1       3      15      14      12      14      13       1
       1       3       1       2       1       6      15       8       8      14       1
       2       3       2       3       3       7       2      13      16      16       1
       2       3       3       1       3       2       5       0      15       2       1
       3       3       3       3       3       2      12       4      14      11       1
       2       3       1       1       2      11       3      14      15       8       1
       3       3       3       1       1       2       5      15       9      14       1
       3       3       2       2       1       9       0      10       3      12       1
       3       1       1       2       2      10       7       7      16       7       1
       1       3       1       3       3       1       2      11       3      13       1
       3       2       1       1       2      11      14       8       6       5       1
       3       2       3       3       2       6      15      16      15      12       1
       2       1       3       3       1      10      10       8      14      12       1
       1       3       1       1       3       7       8      16      12       2       1
       1       1       2       2       2      13      14       9       0      14       1
       2       3       2       3       2      12      13       0       1       3       1
       1       3       3       2       3       4      13      11      12       0       1
       3       2       1       1       3       3       6       8       7      10       1
       1       1       1       3       2       8      10       8      11      13       1
       3       3       3       3       1       9       5      12      13      10       1
       2       2       3       1       3       4       6       8       4       2       1
       3       3       1       1       1       2       1       8       7      14       1
       3       3       1       1       1       0       1       2       0      13       1
       1       2       1       1       2       3       1       1       1       9       1
       2       1       1       3       3       6       8       2       8       4       1
       1       3       3       2       3      14       6       2      12       5       1
       1       1       1       3       2       3       8      10      11      16       1
       2       2       1       1       2       1      12      14       2       3       1
       2       2       2       1       3      11      10      13       1       2       1
       3       1       3       2       2      12      10      16      10       9       1
       3       3       3       3       2       2       3       1      15       0       1
       1       1       2       2       1       7      12      16       2      15       1
       2       3       2       2       1       1      15       9      16       0       1
       3       3       2       1       3       1       8       7      15       7       1
       1       1       3       2       1       1       2      10       0       5       1
       1       1       2       2       1      13       9       1       0      11       1
       3       1       3       1       1      11      10       2       2       4       1
       1       2       2       1       1       5      14      12       4      15       1
       2       3       2       2       1      14      12      15      13       1       1
       2       2       1       2       3      14       7      16      14      14       1
       2       3       3       1       3      10       3      11       7      11       1
       2       3       2       3       1      15      11       4       2      11       1
       2       3       1       2       3       0      13       0       0      16       1
       1       3       3       1       3      13       0       4      16       3       1
       3       3       2       3       1       7      12      15      16       3       1
       2       3       2       1       1      14       1       8      10       9       1
       2       3       2       2       2      12       7       2       0      16       1
       3       1       2       3       1      13      13       9      15      15       1
       1       2       1       3       1      11      12      15       1      15       1
       3       2       3       2       2      15      13       8      12       0       1
       1       1       3       2       2      11       4       3       1      13       1
       1       3       3       2       1      10      16       5       9      14       1
       2       1       3       3       1       3      13      16       5       6       1
       2       1       1       1       3       9       4      16       9       6       1
       1       2       2       2       1       4       6      13      15      15       1
       1       3       1       1       3      13      11      14      10       2       1
       2       3       1       1       3       9      11       2       5       4       1
       2       2       2       3       1      12       5      15      13       7       1
       3       3       1       3       2       0       7       8       1       4       1
       2       3       2       3       2      12      16      16       1       2       1
       2       3       1       3       3       4       1      10       4      11       1
       3       3       3       1       1      16      12      14      14       5       1
       3       1       2       2       1      10       4       1       1       0       1
       3       2       2       1       3       5       9       3      16       1       1
       1       1       1       1       3       8       0       8       4      15       1
       1       1       3       2       3      10       4      12      13       0       1
       2       2       2       3       2       6      16       6      10       0       1
       2       1       1       3       3      10       0       0      13       2       1
       1       1       3       3       1      10       5       5       8      15       1
       2       2       1       2       3      12       9      11       0      12       1
       3       3       3       1       1      11      15      12      11       2       1
       1       2       1       2       3       0       0       2      11       8       1
       2       2       3       3       1       3       4      14      15       1       1
       2       3       2       3       2       8      16      10      16       2       1
       3       1       3       3       3       8      15      14       2       4       1
       3       1       2       3       2       1      13      16       6       3       1
       3       1       3       1       1       4       7      16       5       9       1
       2       2       1       1       2       1       2       8       7       1       1
       1       2       1       2       2       2      13       8      12       6       1
       1       3       2       1       2      11      15       9       9      14       1
       2       2       2       3       2      11      12      11       9       0       1
       1       3       2       2       1       0      12      12      13       9       1
       1       1       1       1       2      13      14      14       8       8       1
       2       2       2       1       3       5       2       6       5      13       1
       2       1       2       2       3       7       3      15       9       7       1
       1       2       3       3       1       1      15      14       9       7       1
       3       1       3       3       1       7       7       9       6      16       1
       1       3       3       2       2       6      14      15      13       2       1
       2       2       3       1       3      10      11      12       8       2       1
       1       2       3       1       2       8       0       0      16       3       1
       3       1       3       1       3       6       1      13      13      14       1
       1       2       1       3       1       2       6      11      11      16       1
       2       1       1       2       3       1       7      15      14      15       1
       2       3       1       3       1      14       1       9      12      14       1
       2       1       1       2       2      11       9       2       2       1       1
       3       3       1       3       1      13      13       6      16       4       1
       3       2       3       3       1      14      10       1       4      16       1
       2       3       1       1       1      15       4      13      10      14       1
       2       3       1       2       3      12      14      11      12       6       1
       3       2       2       3       3       9       1      11       5      14       1
       1       3       2       3       3       4      14       5       0      14       1
       2       1       1       3       1       1      12       6      10       9       1
       3       3       2       1       3      16      10       1       6      10       1
       3       1       2       1       1       8       0      11       5       0       1
       2       2       1       1       3       4       2      11       8      15       1
       2       3       3       3       2      15       4       3       9       7       1
       3       3       1       1       2       2       2      15      10       8       1
       1       3       3       1       3      16       2       4       0      14       1
       3       2       1       1       1      13       0      13      16       5       1
       2       3       2       2       2       7       6      16       8      14       1
       2       1       2       1       2       3      12       0       1      11       1
       2       2       2       2       3      13      12      10       1      15       1
       3       1       2       3       3      12       5       4      14      12       1
       2       1       2       3       3       2      16       4      16      13       1
       1       1       3       1       3       7       4       1       5      10       1
       2       3       2       2       3       4       1      12      16      13       1
       1       1       1       3       3       9       6      12      14       6       1
       2       1       1       3       2      14       8       8      15      16       1
       1       2       2       3       3       2       5       3       0       2       1
       2       2       3       3       3       1      16      11      15       7       1
       1       1       1       3       1       0      14      13      11       1       1
       1       1       1       1       2       7       6       5      12       5       1
       1       1       2       2       2      10      10       1      15      14       1
       1       1       2       1       1      10      12       2      10       7       1
       3       2       3       1       3       2       3       5       1       7       1
       1       3       2       2       1       1      11       4       2      16       1
       1       2       1       1       1       1       7       0       3       3       1
       3       2       3       1       2      13      13       0       1      11       1
       3       1       1       2       2       8       4       6       0      10       1
       2       3       1       1       3      16      14      14       0       7       1
       3       2       1       2       2      10       4       6       4       8       1
       3       2       3       3       2      11      13      11       8      12       1
       3       3       2       3       3       0      14      10       2      16       1
       1       3       3       3       2       9       8      16      14      14       1
       2       2       2       1       3      10      11      16       9       4       1
       3       1       2       2       2       2       2       5      15       8       1
       2       2       3       2       1       2      10       9       4      15       1
       2       3       3       1       2       1       2       4      16      16       1
       3       1       3       1       1      12      13      13       1      10       1
       3       2       3       2       2       2      11       0       9       2       1
       2       1       3       3       1       4      16       0       3      12       1
       2       2       2       3       2       8       2       8       8      11       1
       1       3       2       2       2       0      11       0      11      12       1
       3       3       2       3       2       1      13       4       6      11       1
       2       2       2       1       3       0      16       5       6       7       1
       2       3       3       1       1      14       9       9      14       3       1
       2       3       2       2       2       2       9       6      10      12       1
       1       3       1       1       3      16       8       9      10       9       1
       1       3       3       3       2      16       2       5       1      13       1
       3       1       3       1       2       7      13       8      15       2       1
       1       3       3       3       3      11      11       7      16      15       1
       3       1       3       1       1       7      14      14       0      12       1
       3       3       2       1       3      12       5       1       8      12       1
       2       1       2       2       3       7       4      11       3      16       1
       2       3       1       2       3      16      12       7       9      14       1
       1       3       2       2       3      16       5      13       9      12       1
       1       1       2       3       2      13       8      12      14       1       1
       2       1       3       1       1      12       1       0       3      11       1
       1       3       1       2       1       8       7       2       2       1       1
       2       1       3       1       1       2       4       7       6       3       1
       3       2       1       2       3       7       1       6      12       7       1
       1       3       2       1       1      16      16      13       9       2       1
       2       2       3       1       2      15       6       5       7       3       1
       3       1       2       3       3      11       0       6      10      16       1
       2       3       2       1       1      14      13      15      10       4       1
      40      42      57      46      63
      78      87     113      90     126
     118     178     207     221     316